nTasks=4;
nThreads=10;
nCPUs=3;
nCores=7;
rh=[750.586311985 745.756512099 282.826398843 780.860109511 914.222439558 938.228274176 447.118952911 725.333085741 164.642107602 723.593954095];
rc=[623.082964676 458.655874728 795.67114284];
CK=[
	[1 1 1 0 0 0 0]
	[0 0 0 1 0 0 0]
	[0 0 0 0 1 1 1]
];
TH=[
	[1 1 1 0 0 0 0 0 0 0]
	[0 0 0 1 1 0 0 0 0 0]
	[0 0 0 0 0 1 1 1 1 0]
	[0 0 0 0 0 0 0 0 0 1]
];
